(set-logic QF_LIA)
(declare-fun x0 () Int)
(declare-fun x1 () Int)
(declare-fun x2 () Int)
(declare-fun x3 () Int)
(declare-fun x4 () Int)
(declare-fun x5 () Int)
(declare-fun x6 () Int)
(declare-fun x7 () Int)
(declare-fun x8 () Int)
(declare-fun x9 () Int)
(declare-fun A0 () Bool)
(declare-fun A1 () Bool)
(declare-fun A2 () Bool)
(declare-fun A3 () Bool)
(declare-fun A4 () Bool)
(declare-fun A5 () Bool)
(declare-fun A6 () Bool)
(declare-fun A7 () Bool)
(declare-fun A8 () Bool)
(declare-fun A9 () Bool)
(assert (let ((.def_0 (* (- 1) x8))) (let ((.def_1 (* 1 x9))) (let ((.def_2 (+ .def_1 .def_0))) (let ((.def_3 (< .def_2 1))) (let ((.def_4 (and A6 .def_3))) (let ((.def_5 (not .def_4))) (let ((.def_6 (* 1 x5))) (let ((.def_7 (< .def_6 (- 1)))) (let ((.def_8 (* (- 1) x6))) (let ((.def_9 (* 1 x7))) (let ((.def_10 (+ .def_9 .def_8))) (let ((.def_11 (< .def_10 (- 1)))) (let ((.def_12 (not .def_11))) (let ((.def_13 (= .def_12 .def_7))) (let ((.def_14 (or .def_13 .def_5))) (let ((.def_15 (* (- 1) x4))) (let ((.def_16 (< .def_15 (- 1)))) (let ((.def_17 (not A3))) (let ((.def_18 (or .def_17 .def_16))) (let ((.def_19 (not .def_7))) (let ((.def_20 (or A5 .def_19))) (let ((.def_21 (or .def_20 .def_18))) (let ((.def_22 (not .def_21))) (let ((.def_23 (or .def_22 .def_14))) (let ((.def_24 (not .def_23))) (let ((.def_25 (or A7 A5))) (let ((.def_26 (* 1 x6))) (let ((.def_27 (* (- 1) x7))) (let ((.def_28 (+ .def_27 .def_26))) (let ((.def_29 (< .def_28 1))) (let ((.def_30 (and .def_29 A5))) (let ((.def_31 (not .def_30))) (let ((.def_32 (or .def_31 .def_25))) (let ((.def_33 (not A1))) (let ((.def_34 (= A0 .def_33))) (let ((.def_35 (* 1 x4))) (let ((.def_36 (< .def_35 1))) (let ((.def_37 (* 1 x0))) (let ((.def_38 (* 1 x8))) (let ((.def_39 (+ .def_38 .def_37))) (let ((.def_40 (< .def_39 1))) (let ((.def_41 (not .def_40))) (let ((.def_42 (or .def_41 .def_36))) (let ((.def_43 (not .def_42))) (let ((.def_44 (and .def_43 .def_34))) (let ((.def_45 (and .def_44 .def_32))) (let ((.def_46 (not .def_45))) (let ((.def_47 (or .def_46 .def_24))) (let ((.def_48 (* 1 x2))) (let ((.def_49 (+ .def_48 .def_35))) (let ((.def_50 (< .def_49 (- 1)))) (let ((.def_51 (< .def_48 1))) (let ((.def_52 (not .def_51))) (let ((.def_53 (or .def_52 .def_50))) (let ((.def_54 (not .def_53))) (let ((.def_55 (* (- 1) x0))) (let ((.def_56 (< .def_55 1))) (let ((.def_57 (* (- 1) x3))) (let ((.def_58 (< .def_57 (- 1)))) (let ((.def_59 (not .def_58))) (let ((.def_60 (or .def_59 .def_56))) (let ((.def_61 (and .def_60 .def_54))) (let ((.def_62 (not .def_61))) (let ((.def_63 (not A0))) (let ((.def_64 (and .def_63 A2))) (let ((.def_65 (+ .def_15 .def_37))) (let ((.def_66 (< .def_65 (- 1)))) (let ((.def_67 (+ .def_15 .def_27))) (let ((.def_68 (< .def_67 1))) (let ((.def_69 (and .def_68 .def_66))) (let ((.def_70 (and .def_69 .def_64))) (let ((.def_71 (or .def_70 .def_62))) (let ((.def_72 (not .def_71))) (let ((.def_73 (not A7))) (let ((.def_74 (or .def_73 A7))) (let ((.def_75 (* (- 1) x5))) (let ((.def_76 (< .def_75 (- 1)))) (let ((.def_77 (not .def_76))) (let ((.def_78 (not A4))) (let ((.def_79 (or .def_78 .def_77))) (let ((.def_80 (or .def_79 .def_74))) (let ((.def_81 (* 1 x3))) (let ((.def_82 (< .def_81 1))) (let ((.def_83 (not .def_82))) (let ((.def_84 (and .def_83 A6))) (let ((.def_85 (< .def_75 1))) (let ((.def_86 (not .def_85))) (let ((.def_87 (or .def_86 A5))) (let ((.def_88 (not .def_87))) (let ((.def_89 (or .def_88 .def_84))) (let ((.def_90 (and .def_89 .def_80))) (let ((.def_91 (= .def_90 .def_72))) (let ((.def_92 (and .def_91 .def_47))) (let ((.def_93 (not A5))) (let ((.def_94 (* (- 1) x1))) (let ((.def_95 (+ .def_94 .def_35))) (let ((.def_96 (< .def_95 (- 1)))) (let ((.def_97 (or .def_96 .def_93))) (let ((.def_98 (not .def_97))) (let ((.def_99 (+ .def_81 .def_27))) (let ((.def_100 (< .def_99 1))) (let ((.def_101 (or A9 .def_100))) (let ((.def_102 (not .def_101))) (let ((.def_103 (and .def_102 .def_98))) (let ((.def_104 (not .def_103))) (let ((.def_105 (* (- 1) x2))) (let ((.def_106 (< .def_105 (- 1)))) (let ((.def_107 (not .def_106))) (let ((.def_108 (+ .def_26 .def_35))) (let ((.def_109 (< .def_108 1))) (let ((.def_110 (not .def_109))) (let ((.def_111 (and .def_110 .def_107))) (let ((.def_112 (not .def_111))) (let ((.def_113 (or A4 A1))) (let ((.def_114 (not .def_113))) (let ((.def_115 (and .def_114 .def_112))) (let ((.def_116 (not .def_115))) (let ((.def_117 (and .def_116 .def_104))) (let ((.def_118 (not .def_117))) (let ((.def_119 (+ .def_81 .def_8))) (let ((.def_120 (< .def_119 1))) (let ((.def_121 (not .def_120))) (let ((.def_122 (= A5 .def_121))) (let ((.def_123 (or .def_73 .def_78))) (let ((.def_124 (not .def_123))) (let ((.def_125 (and .def_124 .def_122))) (let ((.def_126 (not .def_125))) (let ((.def_127 (and .def_78 .def_7))) (let ((.def_128 (not .def_127))) (let ((.def_129 (* (- 1) x9))) (let ((.def_130 (< .def_129 1))) (let ((.def_131 (not .def_130))) (let ((.def_132 (and .def_131 A2))) (let ((.def_133 (and .def_132 .def_128))) (let ((.def_134 (not .def_133))) (let ((.def_135 (and .def_134 .def_126))) (let ((.def_136 (and .def_135 .def_118))) (let ((.def_137 (+ .def_9 .def_105))) (let ((.def_138 (< .def_137 1))) (let ((.def_139 (= .def_78 .def_138))) (let ((.def_140 (or A7 A9))) (let ((.def_141 (and .def_140 .def_139))) (let ((.def_142 (+ .def_8 .def_57))) (let ((.def_143 (< .def_142 1))) (let ((.def_144 (+ .def_27 .def_38))) (let ((.def_145 (< .def_144 1))) (let ((.def_146 (and .def_145 .def_143))) (let ((.def_147 (not .def_146))) (let ((.def_148 (* 1 x1))) (let ((.def_149 (+ .def_9 .def_148))) (let ((.def_150 (< .def_149 1))) (let ((.def_151 (not .def_150))) (let ((.def_152 (< .def_8 (- 1)))) (let ((.def_153 (not .def_152))) (let ((.def_154 (or .def_153 .def_151))) (let ((.def_155 (= .def_154 .def_147))) (let ((.def_156 (not .def_155))) (let ((.def_157 (or .def_156 .def_141))) (let ((.def_158 (not .def_157))) (let ((.def_159 (< .def_94 (- 1)))) (let ((.def_160 (or .def_159 .def_78))) (let ((.def_161 (not .def_160))) (let ((.def_162 (+ .def_148 .def_48))) (let ((.def_163 (< .def_162 1))) (let ((.def_164 (not .def_163))) (let ((.def_165 (or .def_93 .def_164))) (let ((.def_166 (or .def_165 .def_161))) (let ((.def_167 (+ .def_38 .def_27))) (let ((.def_168 (< .def_167 1))) (let ((.def_169 (not .def_168))) (let ((.def_170 (or .def_63 .def_169))) (let ((.def_171 (not .def_170))) (let ((.def_172 (+ .def_37 .def_0))) (let ((.def_173 (< .def_172 (- 1)))) (let ((.def_174 (not .def_173))) (let ((.def_175 (not A2))) (let ((.def_176 (= .def_175 .def_174))) (let ((.def_177 (not .def_176))) (let ((.def_178 (and .def_177 .def_171))) (let ((.def_179 (= .def_178 .def_166))) (let ((.def_180 (not .def_179))) (let ((.def_181 (and .def_180 .def_158))) (let ((.def_182 (and .def_181 .def_136))) (let ((.def_183 (not .def_182))) (let ((.def_184 (and .def_183 .def_92))) (let ((.def_185 (not A9))) (let ((.def_186 (+ .def_38 .def_129))) (let ((.def_187 (< .def_186 1))) (let ((.def_188 (or .def_187 .def_185))) (let ((.def_189 (not .def_188))) (let ((.def_190 (+ .def_9 .def_35))) (let ((.def_191 (< .def_190 1))) (let ((.def_192 (+ .def_148 .def_8))) (let ((.def_193 (< .def_192 (- 1)))) (let ((.def_194 (not .def_193))) (let ((.def_195 (or .def_194 .def_191))) (let ((.def_196 (or .def_195 .def_189))) (let ((.def_197 (and .def_175 A7))) (let ((.def_198 (+ .def_27 .def_35))) (let ((.def_199 (< .def_198 (- 1)))) (let ((.def_200 (and .def_199 .def_17))) (let ((.def_201 (and .def_200 .def_197))) (let ((.def_202 (not .def_201))) (let ((.def_203 (or .def_202 .def_196))) (let ((.def_204 (and .def_185 .def_185))) (let ((.def_205 (< .def_37 (- 1)))) (let ((.def_206 (= .def_205 A0))) (let ((.def_207 (or .def_206 .def_204))) (let ((.def_208 (and .def_17 .def_175))) (let ((.def_209 (< .def_1 (- 1)))) (let ((.def_210 (not .def_209))) (let ((.def_211 (< .def_129 (- 1)))) (let ((.def_212 (not .def_211))) (let ((.def_213 (or .def_212 .def_210))) (let ((.def_214 (not .def_213))) (let ((.def_215 (= .def_214 .def_208))) (let ((.def_216 (not .def_215))) (let ((.def_217 (or .def_216 .def_207))) (let ((.def_218 (not .def_217))) (let ((.def_219 (or .def_218 .def_203))) (let ((.def_220 (and A2 A2))) (let ((.def_221 (not .def_220))) (let ((.def_222 (+ .def_75 .def_27))) (let ((.def_223 (< .def_222 1))) (let ((.def_224 (not .def_223))) (let ((.def_225 (or .def_224 A4))) (let ((.def_226 (not .def_225))) (let ((.def_227 (and .def_226 .def_221))) (let ((.def_228 (and .def_175 A1))) (let ((.def_229 (+ .def_8 .def_38))) (let ((.def_230 (< .def_229 (- 1)))) (let ((.def_231 (not .def_230))) (let ((.def_232 (and A6 .def_231))) (let ((.def_233 (or .def_232 .def_228))) (let ((.def_234 (or .def_233 .def_227))) (let ((.def_235 (not .def_234))) (let ((.def_236 (< .def_15 1))) (let ((.def_237 (or .def_175 .def_236))) (let ((.def_238 (+ .def_55 .def_94))) (let ((.def_239 (< .def_238 (- 1)))) (let ((.def_240 (and A3 .def_239))) (let ((.def_241 (not .def_240))) (let ((.def_242 (and .def_241 .def_237))) (let ((.def_243 (not .def_242))) (let ((.def_244 (+ .def_148 .def_6))) (let ((.def_245 (< .def_244 (- 1)))) (let ((.def_246 (or .def_245 A0))) (let ((.def_247 (< .def_105 1))) (let ((.def_248 (or .def_247 .def_77))) (let ((.def_249 (not .def_248))) (let ((.def_250 (= .def_249 .def_246))) (let ((.def_251 (or .def_250 .def_243))) (let ((.def_252 (not .def_251))) (let ((.def_253 (or .def_252 .def_235))) (let ((.def_254 (or .def_253 .def_219))) (let ((.def_255 (not .def_254))) (let ((.def_256 (not .def_36))) (let ((.def_257 (+ .def_38 .def_15))) (let ((.def_258 (< .def_257 (- 1)))) (let ((.def_259 (not .def_258))) (let ((.def_260 (or .def_259 .def_256))) (let ((.def_261 (+ .def_8 .def_129))) (let ((.def_262 (< .def_261 (- 1)))) (let ((.def_263 (not .def_262))) (let ((.def_264 (= .def_83 .def_263))) (let ((.def_265 (not .def_264))) (let ((.def_266 (and .def_265 .def_260))) (let ((.def_267 (not .def_266))) (let ((.def_268 (or A8 A8))) (let ((.def_269 (not .def_268))) (let ((.def_270 (< .def_55 (- 1)))) (let ((.def_271 (not .def_270))) (let ((.def_272 (not A6))) (let ((.def_273 (or .def_272 .def_271))) (let ((.def_274 (and .def_273 .def_269))) (let ((.def_275 (not .def_274))) (let ((.def_276 (and .def_275 .def_267))) (let ((.def_277 (not .def_276))) (let ((.def_278 (+ .def_48 .def_1))) (let ((.def_279 (< .def_278 1))) (let ((.def_280 (+ .def_105 .def_1))) (let ((.def_281 (< .def_280 (- 1)))) (let ((.def_282 (not .def_281))) (let ((.def_283 (or .def_282 .def_279))) (let ((.def_284 (not .def_283))) (let ((.def_285 (< .def_6 1))) (let ((.def_286 (not .def_285))) (let ((.def_287 (or .def_286 .def_17))) (let ((.def_288 (not .def_287))) (let ((.def_289 (= .def_288 .def_284))) (let ((.def_290 (and A4 A3))) (let ((.def_291 (or .def_209 .def_93))) (let ((.def_292 (not .def_291))) (let ((.def_293 (= .def_292 .def_290))) (let ((.def_294 (not .def_293))) (let ((.def_295 (and .def_294 .def_289))) (let ((.def_296 (= .def_295 .def_277))) (let ((.def_297 (not .def_296))) (let ((.def_298 (< .def_81 (- 1)))) (let ((.def_299 (not .def_298))) (let ((.def_300 (< .def_57 1))) (let ((.def_301 (not .def_300))) (let ((.def_302 (and .def_301 .def_299))) (let ((.def_303 (not .def_302))) (let ((.def_304 (+ .def_15 .def_81))) (let ((.def_305 (< .def_304 1))) (let ((.def_306 (not .def_305))) (let ((.def_307 (and .def_17 .def_306))) (let ((.def_308 (not .def_307))) (let ((.def_309 (= .def_308 .def_303))) (let ((.def_310 (< .def_26 (- 1)))) (let ((.def_311 (and .def_310 .def_73))) (let ((.def_312 (and A1 .def_272))) (let ((.def_313 (or .def_312 .def_311))) (let ((.def_314 (and .def_313 .def_309))) (let ((.def_315 (not .def_314))) (let ((.def_316 (+ .def_6 .def_0))) (let ((.def_317 (< .def_316 1))) (let ((.def_318 (not .def_317))) (let ((.def_319 (or .def_318 .def_272))) (let ((.def_320 (and .def_185 A4))) (let ((.def_321 (and .def_320 .def_319))) (let ((.def_322 (not .def_321))) (let ((.def_323 (+ .def_94 .def_0))) (let ((.def_324 (< .def_323 1))) (let ((.def_325 (not .def_324))) (let ((.def_326 (= .def_325 A5))) (let ((.def_327 (not .def_326))) (let ((.def_328 (and .def_77 .def_130))) (let ((.def_329 (not .def_328))) (let ((.def_330 (and .def_329 .def_327))) (let ((.def_331 (not .def_330))) (let ((.def_332 (or .def_331 .def_322))) (let ((.def_333 (not .def_332))) (let ((.def_334 (and .def_333 .def_315))) (let ((.def_335 (not .def_334))) (let ((.def_336 (= .def_335 .def_297))) (let ((.def_337 (not .def_336))) (let ((.def_338 (or .def_337 .def_255))) (let ((.def_339 (not .def_338))) (let ((.def_340 (or .def_339 .def_184))) (let ((.def_341 (<= x9 1))) (let ((.def_342 (<= 0 x9))) (let ((.def_343 (<= x8 1))) (let ((.def_344 (<= 0 x8))) (let ((.def_345 (<= x7 1))) (let ((.def_346 (<= 0 x7))) (let ((.def_347 (<= x6 1))) (let ((.def_348 (<= 0 x6))) (let ((.def_349 (<= x5 1))) (let ((.def_350 (<= 0 x5))) (let ((.def_351 (<= x4 1))) (let ((.def_352 (<= 0 x4))) (let ((.def_353 (<= x3 1))) (let ((.def_354 (<= 0 x3))) (let ((.def_355 (<= x2 1))) (let ((.def_356 (<= 0 x2))) (let ((.def_357 (<= x1 1))) (let ((.def_358 (<= 0 x1))) (let ((.def_359 (<= x0 1))) (let ((.def_360 (<= 0 x0))) (let ((.def_361 (and .def_360 .def_359 .def_358 .def_357 .def_356 .def_355 .def_354 .def_353 .def_352 .def_351 .def_350 .def_349 .def_348 .def_347 .def_346 .def_345 .def_344 .def_343 .def_342 .def_341 .def_340))) .def_361)))))))))))))))))))))))))))))))))))))))))))))))))))))))))))))))))))))))))))))))))))))))))))))))))))))))))))))))))))))))))))))))))))))))))))))))))))))))))))))))))))))))))))))))))))))))))))))))))))))))))))))))))))))))))))))))))))))))))))))))))))))))))))))))))))))))))))))))))))))))))))))))))))))))))))))))))))))))))))))))))))))))))))))))))))))))))))))))))))))))))))
(check-sat)
